583183
583183
583183
558029
558029
558029
557285
557285
557285
557285
557285
550413
544118
544118
544118
544118
544118
540199
536304
534299
534299
534299
534299
530202
530202
529407
529407
528819
528819
528819
528382
528382
525208
525208
525208
520191
520191
520191
514870
514870
514032
514032
514032
514032
514032
508187
508187
508187
508187
508187
508187
508187
508187
507880
507880
507880
504424
502888
501609
501609
501609
501609
501609
497781
497781
497781
497781
496312
496312
496312
495620
495620
495620
495620
495620
495620
495620
494914
494914
494914
494461
494403
492656
492656
491893
491893
491893
491893
491893
491893
489257
480544
480544
480544
480544
480544
476127
476127
476127
476127
